% demand
num_movements = 22;
loading_factor = [1150, 1950, 1200, 1550, 1150, 1950, 1500, 850, 1600, 1150, 900, 1900, 1850, 1150, 1450, 1900, 1200, 1300, 1450, 1050, 1850, 1500];
pickup_time = [0, 0, 0, 0, 0, 3, 3, 3, 3, 4, 4, 4, 4, 5, 5, 6, 6, 6, 7, 8, 8, 8];
delivery_time = [1, 2, 2, 1, 1, 4, 4, 4, 4, 5, 7, 5, 5, 8, 6, 8, 8, 8, 10, 10, 9, 10];

% transporter definition
total_capacity = 7000;
num_decks = 3;
capacity = [3000, 1000, 3000];

% ways out of decks
num_ways_out = 1;
paths_out = array3d(decks, ways_out, decks, [
% ways out of deck d1
2, 3, 0, 

% ways out of deck d2
3, 0, 0, 

% ways out of deck d3
0, 0, 0,	

]);

